CKP/CKP_n50_Instance_4.lp
\ENCODING=ISO-8859-1
\Problem name: CKP

Maximize
 obj: x1 + x2 + x3 + x4 + x5 + x6 + x7 + x8 + x9 + x10 + x11 + x12 + x13 + x14
      + x15 + x16 + x17 + x18 + x19 + x20 + x21 + x22 + x23 + x24 + x25 + x26
      + x27 + x28 + x29 + x30 + x31 + x32 + x33 + x34 + x35 + x36 + x37 + x38
      + x39 + x40 + x41 + x42 + x43 + x44 + x45 + x46 + x47 + x48 + x49 + x50
Subject To
 c1: 14549 x1 + 14550 x2 + 14551 x3 + 14583 x4 + 14584 x5 + 14585 x6 + 14617 x7
     + 14618 x8 + 14619 x9 + 15194 x10 + 15195 x11 + 15196 x12 + 15228 x13
     + 15229 x14 + 15230 x15 + 15262 x16 + 15263 x17 + 15264 x18 + 15839 x19
     + 15840 x20 + 15841 x21 + 15873 x22 + 15874 x23 + 14550 x24 + 14551 x25
     + 14583 x26 + 14584 x27 + 14617 x28 + 14618 x29 + 14619 x30 + 15194 x31
     + 15196 x32 + 15228 x33 + 15229 x34 + 15263 x35 + 15264 x36 + 15840 x37
     + 15874 x38 + 15875 x39 + 15907 x40 + 15908 x41 + 15909 x42 + 28420 x43
     + 28421 x44 + 28422 x45 + 28454 x46 + 28455 x47 + 28456 x48 + 28489 x49
     + 28490 x50 >= 461490
 c2: 14549 x1 + 14550 x2 + 14551 x3 + 14583 x4 + 14584 x5 + 14585 x6 + 14617 x7
     + 14618 x8 + 14619 x9 + 15194 x10 + 15195 x11 + 15196 x12 + 15228 x13
     + 15229 x14 + 15230 x15 + 15262 x16 + 15263 x17 + 15264 x18 + 15839 x19
     + 15840 x20 + 15841 x21 + 15873 x22 + 15874 x23 + 14550 x24 + 14551 x25
     + 14583 x26 + 14584 x27 + 14617 x28 + 14618 x29 + 14619 x30 + 15194 x31
     + 15196 x32 + 15228 x33 + 15229 x34 + 15263 x35 + 15264 x36 + 15840 x37
     + 15874 x38 + 15875 x39 + 15907 x40 + 15908 x41 + 15909 x42 + 28420 x43
     + 28421 x44 + 28422 x45 + 28454 x46 + 28455 x47 + 28456 x48 + 28489 x49
     + 28490 x50 <= 461491
Bounds
 0 <= x1 <= 1
 0 <= x2 <= 1
 0 <= x3 <= 1
 0 <= x4 <= 1
 0 <= x5 <= 1
 0 <= x6 <= 1
 0 <= x7 <= 1
 0 <= x8 <= 1
 0 <= x9 <= 1
 0 <= x10 <= 1
 0 <= x11 <= 1
 0 <= x12 <= 1
 0 <= x13 <= 1
 0 <= x14 <= 1
 0 <= x15 <= 1
 0 <= x16 <= 1
 0 <= x17 <= 1
 0 <= x18 <= 1
 0 <= x19 <= 1
 0 <= x20 <= 1
 0 <= x21 <= 1
 0 <= x22 <= 1
 0 <= x23 <= 1
 0 <= x24 <= 1
 0 <= x25 <= 1
 0 <= x26 <= 1
 0 <= x27 <= 1
 0 <= x28 <= 1
 0 <= x29 <= 1
 0 <= x30 <= 1
 0 <= x31 <= 1
 0 <= x32 <= 1
 0 <= x33 <= 1
 0 <= x34 <= 1
 0 <= x35 <= 1
 0 <= x36 <= 1
 0 <= x37 <= 1
 0 <= x38 <= 1
 0 <= x39 <= 1
 0 <= x40 <= 1
 0 <= x41 <= 1
 0 <= x42 <= 1
 0 <= x43 <= 1
 0 <= x44 <= 1
 0 <= x45 <= 1
 0 <= x46 <= 1
 0 <= x47 <= 1
 0 <= x48 <= 1
 0 <= x49 <= 1
 0 <= x50 <= 1
Binaries
 x1  x2  x3  x4  x5  x6  x7  x8  x9  x10  x11  x12  x13  x14  x15  x16  x17 
 x18  x19  x20  x21  x22  x23  x24  x25  x26  x27  x28  x29  x30  x31  x32 
 x33  x34  x35  x36  x37  x38  x39  x40  x41  x42  x43  x44  x45  x46  x47 
 x48  x49  x50 
End
