CKP/CKP_n50_Instance_4.lp.txt
\ENCODING=ISO-8859-1
\Problem name: CKP

Maximize
 obj: x1 + x2 + x3 + x4 + x5 + x6 + x7 + x8 + x9 + x10 + x11 + x12 + x13 + x14
      + x15 + x16 + x17 + x18 + x19 + x20 + x21 + x22 + x23 + x24 + x25 + x26
      + x27 + x28 + x29 + x30 + x31 + x32 + x33 + x34 + x35 + x36 + x37 + x38
      + x39 + x40 + x41 + x42 + x43 + x44 + x45 + x46 + x47 + x48 + x49 + x50
Subject To
 c1: 14001 x1 + 14002 x2 + 14003 x3 + 14035 x4 + 14036 x5 + 14037 x6 + 14069 x7
     + 14070 x8 + 14071 x9 + 14695 x10 + 14696 x11 + 14697 x12 + 14729 x13
     + 14730 x14 + 14731 x15 + 14763 x16 + 14764 x17 + 14765 x18 + 15389 x19
     + 15390 x20 + 15391 x21 + 15423 x22 + 15424 x23 + 14001 x24 + 14002 x25
     + 14035 x26 + 14036 x27 + 14037 x28 + 14069 x29 + 14070 x30 + 14071 x31
     + 14695 x32 + 14696 x33 + 14697 x34 + 14729 x35 + 14730 x36 + 14763 x37
     + 14764 x38 + 14765 x39 + 15389 x40 + 15390 x41 + 15423 x42 + 15424 x43
     + 15458 x44 + 27275 x45 + 27277 x46 + 27310 x47 + 27343 x48 + 27344 x49
     + 27969 x50 >= 375121
 c2: 14001 x1 + 14002 x2 + 14003 x3 + 14035 x4 + 14036 x5 + 14037 x6 + 14069 x7
     + 14070 x8 + 14071 x9 + 14695 x10 + 14696 x11 + 14697 x12 + 14729 x13
     + 14730 x14 + 14731 x15 + 14763 x16 + 14764 x17 + 14765 x18 + 15389 x19
     + 15390 x20 + 15391 x21 + 15423 x22 + 15424 x23 + 14001 x24 + 14002 x25
     + 14035 x26 + 14036 x27 + 14037 x28 + 14069 x29 + 14070 x30 + 14071 x31
     + 14695 x32 + 14696 x33 + 14697 x34 + 14729 x35 + 14730 x36 + 14763 x37
     + 14764 x38 + 14765 x39 + 15389 x40 + 15390 x41 + 15423 x42 + 15424 x43
     + 15458 x44 + 27275 x45 + 27277 x46 + 27310 x47 + 27343 x48 + 27344 x49
     + 27969 x50 <= 375122
Bounds
 0 <= x1 <= 1
 0 <= x2 <= 1
 0 <= x3 <= 1
 0 <= x4 <= 1
 0 <= x5 <= 1
 0 <= x6 <= 1
 0 <= x7 <= 1
 0 <= x8 <= 1
 0 <= x9 <= 1
 0 <= x10 <= 1
 0 <= x11 <= 1
 0 <= x12 <= 1
 0 <= x13 <= 1
 0 <= x14 <= 1
 0 <= x15 <= 1
 0 <= x16 <= 1
 0 <= x17 <= 1
 0 <= x18 <= 1
 0 <= x19 <= 1
 0 <= x20 <= 1
 0 <= x21 <= 1
 0 <= x22 <= 1
 0 <= x23 <= 1
 0 <= x24 <= 1
 0 <= x25 <= 1
 0 <= x26 <= 1
 0 <= x27 <= 1
 0 <= x28 <= 1
 0 <= x29 <= 1
 0 <= x30 <= 1
 0 <= x31 <= 1
 0 <= x32 <= 1
 0 <= x33 <= 1
 0 <= x34 <= 1
 0 <= x35 <= 1
 0 <= x36 <= 1
 0 <= x37 <= 1
 0 <= x38 <= 1
 0 <= x39 <= 1
 0 <= x40 <= 1
 0 <= x41 <= 1
 0 <= x42 <= 1
 0 <= x43 <= 1
 0 <= x44 <= 1
 0 <= x45 <= 1
 0 <= x46 <= 1
 0 <= x47 <= 1
 0 <= x48 <= 1
 0 <= x49 <= 1
 0 <= x50 <= 1
Binaries
 x1  x2  x3  x4  x5  x6  x7  x8  x9  x10  x11  x12  x13  x14  x15  x16  x17 
 x18  x19  x20  x21  x22  x23  x24  x25  x26  x27  x28  x29  x30  x31  x32 
 x33  x34  x35  x36  x37  x38  x39  x40  x41  x42  x43  x44  x45  x46  x47 
 x48  x49  x50 
End
